%Chk=H2S-RHF-6-31g-TRIP-SCAN-GEO-SYM
# rohf/6-31g scan
 
Disociacion simetrica RHF 6-31g de H2S
 
0 3
S
H 1 r
H 1 r 2 aHSH

r 6.0 50 -0.11
aHSH=92.11
 
