%Chk=H2S-RHF-sto-3g-SCAN-GEO-SYM
# rhf/sto-3g scan guess=mix
 
H2S-RHF-sto-3g-SCAN-GEO-SYM
 
0 1
S
H 1 r
H 1 r 2 aHSH

r 2.0 30 -0.04
aHSH=92.11
 
