%Chk=H2S-UHF-6-31G**-SCAN-GEO-SYM
# uhf/6-31G** scan guess=mix
 
Disociación simetrica UHF 6-31G** de H2S
 
0 1
S
H 1 r
H 1 r 2 aHSH

r 3.0 50 -0.05
aHSH=92.11
 
