%Chk=H2S-UHF-cc-pVDZ-SCAN-GEO-SYM
# uhf/cc-pVDZ scan guess=mix
 
Disociación simetrica UHF cc-pVDZ de H2S
 
0 1
S
H 1 r
H 1 r 2 aHSH

r 3.0 50 -0.05
aHSH=92.11
 
