% Chk=H2S+-3-21g
# rohf/3-21g pop=full
 
RHF en 3-21g de H2S+
 
1 2
S1
H2 	1 1.336
H3 	1 1.336 2 92.11
 
