%Chk=H2S-UB3LYP-6-31g-SCAN-GEO-SYM
# UB3LYP/6-31g scan guess=mix
 
Disociacion simetrica UB3LYP 6-31g de H2S
 
0 1
S
H 1 r
H 1 r 2 aHSH

r 6.0 50 -0.11
aHSH=92.11
 
