%Chk=H2S-B3LYP-6-31g-SCAN-GEO-SYM
# B3LYP/6-31g scan
 
Disociacion simetrica B3LYP 6-31g de H2S
 
0 1
S
H 1 r
H 1 r 2 aHSH

r 4.0 35 -0.1
aHSH=92.11
 
