&inputpp
prefix = 'Alk1579'
outdir = './'
filband = 'bands.out'
/
