 &control
    calculation = 'scf'
    restart_mode='from_scratch',
    prefix='Alk1579',
    pseudo_dir = 'pseudopot',
 /
 &system
    ibrav=  2, celldm(1) = 7.5, nat=  1, ntyp= 1,
    ecutwfc =18.0, occupations='smearing', smearing='methfessel-paxton', degauss=0.02
 /
 &electrons
 /
&ions
/
ATOMIC_SPECIES
 Al  26.981  Al.blyp-n-van_ak.UPF
ATOMIC_POSITIONS (bohr)
Al       0.000000000   0.000000000   0.000000000    0   0   0

K_POINTS (automatic)
10 10 10 0 0 0
