%Chk=H2S-UHF-6-31g-SCAN-GEO-SYM
# uhf/6-31g opt=z-matrix

Disociacion relajada simetrica UHF 6-31g de H2S

0 1
S
H 1 r
H 1 r 2 92.11

r 3.5 s 50 -0.06
