% Chk=H2S++-UHF-3-21g-SINGLETE
# uhf/3-21g pop=full
 
UHF singlete en 3-21g de H2S+
 
2 1
S1
H2 	1 1.336
H3 	1 1.336 2 92.11
 
