% Chk=H2S+-3-21g-CUARTETE
# uhf/3-21g pop=full
 
UHF cuartete en 3-21g de H2S+
 
1 4
S1
H2 	1 1.336
H3 	1 1.336 2 92.11
 
