% Chk=H2S+-UHF-3-21g-DOBLETE
# uhf/3-21g pop=full
 
UHF Doblete  en 3-21g de H2S+
 
1 2
S1
H2 	1 1.336
H3 	1 1.336 2 92.11
 
