%chk=H2S-TRIPLETE-ROHF.chk
%mem=6MW
%nproc=1
# rohf/sto-3g iop(3/33=6) pop=full
 
H2S-TRIPLETE-ROHF
 
0 3
S1 	0.0000 	0.0000 	 0.1030
H2 	0.0000 	0.9616 	 -0.8239
H3 	0.0000  -0.9616  -0.8239
