% Chk=H2S++-RHF-3-21g-TRIPLETE
# rohf/3-21g pop=full
 
RHF en 3-21g de H2S++
 
2 3
S1
H2 	1 1.336
H3 	1 1.336 2 92.11
 
