%Chk=rhf-6-31g-scan-manual
# rhf/6-31G pop=full
 
rhf-6-31g-1 r=3.25
 
0 1
S
H 1 r
H 1 r 2 aHSH

r 2.81
aHSH=92.11
 
