% Chk=H2S-3-21g
# rhf/3-21g pop=full

RHF en 3-21g de H2S

0 1
S1
H2 	1 1.336
H3 	1 1.336 2 92.11
