 &control
    calculation = 'scf'
    restart_mode='from_scratch',
    prefix='Alk1570',
    pseudo_dir = 'pseudopot',
 /
 &system
    ibrav=  2, celldm(1) = 8, nat=  1, ntyp= 1,
    ecutwfc =18.0, occupations='smearing', smearing='methfessel-paxton', degauss=0.02
 /
 &electrons
    mixing_mode = 'plain'
    mixing_beta = 0.7
    conv_thr =  1.0d-8
 /
&ions
/
ATOMIC_SPECIES
 Al  26.981  Al.pz-vbc.UPF
ATOMIC_POSITIONS (bohr)
Al       0.000000000   0.000000000   0.000000000    0   0   0

K_POINTS (automatic)
 6 6 6  0 0 0


