%Chk=H2S-UHF-sto-3g-SCAN-GEO-SYM
# uhf/sto-3g scan guess=mix
 
H2S-UHF-sto-3g-SCAN-GEO-SYM
 
0 1
S
H 1 r
H 1 r 2 aHSH

r 0.8 30 0.05
aHSH=92.11
 
