&inputpp
prefix = 'silicon'
outdir = './'
filband = 'bands.out'
/
