&inputpp
outdir='./'
prefix='silicon'
Emin=-4.0, Emax=25.0, DeltaE=0.1
ngauss=1, degauss=0.02
/
