 &control
    calculation='nscf'
    prefix='silicon'
 /
 &system
    ibrav=  2, celldm(1) =10.20, nat=  2, ntyp= 1,
    ecutwfc =18.0, nbnd = 8,
 /
 &electrons
    diagonalization='cg'
 /
ATOMIC_SPECIES
 Si  28.086  Si.pz-vbc.UPF
ATOMIC_POSITIONS
 Si 0.00 0.00 0.00
 Si 0.25 0.25 0.25
K_POINTS
45
0.75 0.75 0 1
0.80 0.70 0 1
0.85 0.65 0 1
0.90 0.60 0 1
0.95 0.55 0 1
1 0.5 0 1
0.90 0.45 0 1
0.80 0.40 0 1
0.70 0.35 0 1
0.60 0.30 0 1
0.50 0.25 0 1
0.40 0.20 0 1
0.30 0.15 0 1
0.20 0.10 0 1
0.10 0.05 0 1
0 0 0 1
0.10 0 0 1
0.20 0 0 1
0.30 0 0 1
0.40 0 0 1
0.50 0 0 1
0.60 0 0 1
0.70 0 0 1
0.80 0 0 1
0.90 0 0 1
1 0 0 1
1 0.05 0 1
1 0.10 0 1
1 0.15 0 1
1 0.20 0 1
1 0.25 0 1
1 0.30 0 1
1 0.35 0 1
1 0.45 0 1
1 0.5 0 1
0.95 0.5 0.05 1
0.90 0.5 0.10 1
0.85 0.5 0.15 1
0.80 0.5 0.20 1
0.75 0.5 0.25 1
0.70 0.5 0.30 1
0.65 0.5 0.35 1
0.60 0.5 0.40 1
0.55 0.5 0.45 1
0.5 0.5 0.5 1
